c colouring generated by benchmark framework
p edge 385 19095
v 1 26
v 2 40
v 3 18
v 4 7
v 5 1
v 6 3
v 7 8
v 8 2
v 9 13
v 10 28
v 11 4
v 12 20
v 13 42
v 14 5
v 15 37
v 16 10
v 17 14
v 18 19
v 19 27
v 20 4
v 21 28
v 22 11
v 23 21
v 24 0
v 25 3
v 26 30
v 27 8
v 28 16
v 29 12
v 30 2
v 31 5
v 32 22
v 33 21
v 34 40
v 35 17
v 36 20
v 37 7
v 38 11
v 39 6
v 40 21
v 41 25
v 42 14
v 43 13
v 44 3
v 45 25
v 46 29
v 47 16
v 48 2
v 49 4
v 50 12
v 51 23
v 52 4
v 53 27
v 54 1
v 55 5
v 56 25
v 57 9
v 58 20
v 59 4
v 60 9
v 61 0
v 62 23
v 63 6
v 64 7
v 65 5
v 66 12
v 67 16
v 68 10
v 69 33
v 70 11
v 71 12
v 72 16
v 73 13
v 74 3
v 75 23
v 76 11
v 77 36
v 78 29
v 79 15
v 80 27
v 81 17
v 82 9
v 83 7
v 84 11
v 85 6
v 86 43
v 87 10
v 88 42
v 89 29
v 90 24
v 91 14
v 92 20
v 93 23
v 94 21
v 95 22
v 96 28
v 97 15
v 98 24
v 99 11
v 100 0
v 101 16
v 102 4
v 103 9
v 104 31
v 105 36
v 106 35
v 107 17
v 108 4
v 109 8
v 110 5
v 111 22
v 112 20
v 113 18
v 114 10
v 115 30
v 116 23
v 117 1
v 118 40
v 119 1
v 120 42
v 121 13
v 122 4
v 123 0
v 124 35
v 125 5
v 126 10
v 127 2
v 128 20
v 129 6
v 130 15
v 131 34
v 132 11
v 133 3
v 134 23
v 135 18
v 136 6
v 137 37
v 138 12
v 139 10
v 140 1
v 141 14
v 142 35
v 143 25
v 144 7
v 145 5
v 146 32
v 147 27
v 148 42
v 149 12
v 150 10
v 151 3
v 152 38
v 153 1
v 154 2
v 155 13
v 156 0
v 157 16
v 158 41
v 159 1
v 160 5
v 161 27
v 162 3
v 163 20
v 164 9
v 165 11
v 166 23
v 167 8
v 168 37
v 169 7
v 170 15
v 171 6
v 172 26
v 173 2
v 174 0
v 175 21
v 176 3
v 177 18
v 178 8
v 179 5
v 180 11
v 181 17
v 182 22
v 183 0
v 184 23
v 185 19
v 186 2
v 187 1
v 188 15
v 189 10
v 190 24
v 191 21
v 192 15
v 193 14
v 194 0
v 195 20
v 196 14
v 197 40
v 198 37
v 199 18
v 200 15
v 201 28
v 202 22
v 203 15
v 204 19
v 205 23
v 206 21
v 207 24
v 208 10
v 209 24
v 210 17
v 211 7
v 212 43
v 213 37
v 214 19
v 215 35
v 216 22
v 217 0
v 218 19
v 219 3
v 220 30
v 221 1
v 222 10
v 223 23
v 224 7
v 225 33
v 226 9
v 227 32
v 228 31
v 229 2
v 230 26
v 231 7
v 232 8
v 233 3
v 234 1
v 235 12
v 236 28
v 237 1
v 238 41
v 239 2
v 240 25
v 241 37
v 242 8
v 243 38
v 244 28
v 245 23
v 246 9
v 247 4
v 248 12
v 249 2
v 250 0
v 251 30
v 252 37
v 253 43
v 254 5
v 255 13
v 256 15
v 257 28
v 258 9
v 259 8
v 260 24
v 261 3
v 262 12
v 263 2
v 264 5
v 265 6
v 266 14
v 267 16
v 268 9
v 269 10
v 270 29
v 271 30
v 272 17
v 273 5
v 274 12
v 275 0
v 276 23
v 277 0
v 278 39
v 279 5
v 280 12
v 281 19
v 282 23
v 283 6
v 284 35
v 285 11
v 286 31
v 287 43
v 288 9
v 289 16
v 290 10
v 291 13
v 292 25
v 293 22
v 294 32
v 295 9
v 296 27
v 297 2
v 298 31
v 299 17
v 300 30
v 301 14
v 302 30
v 303 27
v 304 22
v 305 15
v 306 34
v 307 3
v 308 5
v 309 41
v 310 18
v 311 39
v 312 13
v 313 13
v 314 23
v 315 30
v 316 31
v 317 12
v 318 10
v 319 2
v 320 14
v 321 11
v 322 35
v 323 17
v 324 19
v 325 7
v 326 39
v 327 8
v 328 41
v 329 33
v 330 24
v 331 8
v 332 31
v 333 16
v 334 17
v 335 39
v 336 21
v 337 17
v 338 18
v 339 8
v 340 7
v 341 20
v 342 4
v 343 9
v 344 32
v 345 4
v 346 9
v 347 38
v 348 18
v 349 20
v 350 31
v 351 33
v 352 5
v 353 18
v 354 0
v 355 24
v 356 10
v 357 45
v 358 29
v 359 37
v 360 0
v 361 0
v 362 20
v 363 32
v 364 18
v 365 44
v 366 4
v 367 26
v 368 34
v 369 2
v 370 45
v 371 21
v 372 36
v 373 0
v 374 45
v 375 6
v 376 9
v 377 16
v 378 2
v 379 29
v 380 1
v 381 16
v 382 35
v 383 10
v 384 6
v 385 3
